job_count = 14 ;
duration = [|12, 14, 14|5, 4, 8|12, 13, 11|21, 8, 8|12, 23, 8|7, 21, 17|17, 2, 4|17, 8, 18|8, 8, 15|18, 4, 8|20, 23, 7|16, 22, 7|26, 15, 14|9, 7, 2|] ;
machine_count = 3 ;
cost = [|20, 23, 48|12, 48, 58|20, 34, 36|27, 32, 35|10, 35, 41|24, 37, 59|22, 47, 30|24, 46, 34|25, 48, 39|14, 33, 58|13, 43, 33|16, 29, 34|38, 46, 59|12, 20, 37|] ;
deadline = [44, 40, 44, 23, 24, 24, 18, 42, 17, 41, 37, 26, 42, 13] ;
release = [0, 0, 0, 0, 0, 0, 0, 0, 0, 0, 0, 0, 0, 0] ;
resource = [|3, 3, 3|6, 6, 6|1, 1, 1|1, 1, 1|1, 1, 1|7, 7, 7|6, 6, 6|2, 2, 2|8, 8, 8|1, 1, 1|6, 6, 6|6, 6, 6|5, 5, 5|6, 6, 6|] ;
capacities = [10, 10, 10] ;
